DIMACS2
80 556 625 155 327 505 142 247 565 29 27 535 22 248 467 525 348 4 397 437 536 274 26 545 631 111 169 33 59 151 624 533 44 597 207 85 60 330 65 197 395 260 410 352 183 72 404 240 170 517 2 36 453 34 291 549 71 208 468 17 384 355 237 206 371 192 540 359 133 634 306 329 439 160 49 0 383 590 241 573 365
p edge 640 2615
e 0 382 44.0
e 0 1 26.0
e 0 468 1.0
e 0 187 27.0
e 1 289 1.0
e 1 367 1.0
e 1 446 1.0
e 1 307 1.0
e 2 588 14.0
e 2 55 47.0
e 2 323 26.0
e 2 68 2.0
e 3 53 1.0
e 3 628 1.0
e 3 310 3.0
e 3 197 49.0
e 4 170 20.0
e 4 306 42.0
e 4 337 48.0
e 4 383 37.0
e 5 466 1.0
e 5 16 1.0
e 5 56 1.0
e 5 42 1.0
e 6 3 1.0
e 6 338 1.0
e 6 19 1.0
e 6 324 1.0
e 7 407 2.0
e 7 292 4.0
e 7 447 1.0
e 7 397 8.0
e 8 271 1.0
e 8 547 1.0
e 8 513 1.0
e 8 329 26.0
e 9 256 2.0
e 9 497 1.0
e 9 359 19.0
e 9 15 1.0
e 10 565 6.0
e 10 522 1.0
e 10 446 3.0
e 10 591 1.0
e 11 160 42.0
e 11 601 1.0
e 11 372 1.0
e 11 120 1.0
e 12 632 1.0
e 12 382 1.0
e 12 418 1.0
e 12 369 1.0
e 13 307 1.0
e 13 504 1.0
e 13 499 1.0
e 13 125 2.0
e 14 418 1.0
e 14 148 1.0
e 14 562 1.0
e 14 426 3.0
e 15 619 1.0
e 15 34 22.0
e 15 291 22.0
e 15 267 2.0
e 16 114 1.0
e 16 260 37.0
e 16 192 32.0
e 16 436 1.0
e 17 527 40.0
e 17 0 42.0
e 17 44 27.0
e 17 223 22.0
e 17 329 46.0
e 17 631 2.0
e 18 27 45.0
e 18 290 1.0
e 18 102 1.0
e 18 53 1.0
e 19 624 41.0
e 19 96 1.0
e 19 379 2.0
e 19 344 2.0
e 20 447 1.0
e 20 598 1.0
e 20 610 1.0
e 20 491 1.0
e 21 146 1.0
e 21 397 16.0
e 21 395 27.0
e 21 521 1.0
e 22 528 3.0
e 22 6 7.0
e 22 484 25.0
e 22 1 12.0
e 22 169 39.0
e 22 624 46.0
e 22 453 17.0
e 23 85 28.0
e 23 224 2.0
e 23 529 2.0
e 23 86 3.0
e 24 234 3.0
e 24 277 1.0
e 24 533 10.0
e 24 550 1.0
e 25 132 2.0
e 25 68 1.0
e 25 109 1.0
e 25 484 1.0
e 26 550 6.0
e 26 64 26.0
e 26 548 40.0
e 26 382 23.0
e 27 242 17.0
e 27 201 4.0
e 27 150 34.0
e 27 0 24.0
e 27 133 25.0
e 27 505 5.0
e 27 597 29.0
e 27 525 41.0
e 28 573 43.0
e 28 40 1.0
e 28 535 38.0
e 28 297 1.0
e 29 323 35.0
e 29 126 2.0
e 29 603 42.0
e 29 249 42.0
e 29 274 10.0
e 29 329 22.0
e 29 133 43.0
e 30 457 1.0
e 30 472 1.0
e 30 595 2.0
e 30 28 1.0
e 31 436 1.0
e 31 409 1.0
e 31 52 1.0
e 31 4 12.0
e 32 538 2.0
e 32 529 2.0
e 32 294 2.0
e 32 242 1.0
e 33 614 4.0
e 33 526 28.0
e 33 214 14.0
e 33 604 40.0
e 33 160 5.0
e 33 59 28.0
e 33 237 22.0
e 34 311 39.0
e 34 414 5.0
e 34 491 8.0
e 34 309 29.0
e 34 371 1.0
e 34 631 48.0
e 35 49 3.0
e 35 119 1.0
e 35 562 2.0
e 35 613 1.0
e 36 549 22.0
e 36 241 38.0
e 36 37 2.0
e 36 578 14.0
e 36 59 8.0
e 36 395 5.0
e 36 22 1.0
e 37 355 40.0
e 37 149 2.0
e 37 589 1.0
e 37 271 1.0
e 38 134 1.0
e 38 525 8.0
e 38 22 27.0
e 38 539 1.0
e 39 385 1.0
e 39 373 1.0
e 39 561 2.0
e 39 559 1.0
e 40 326 1.0
e 40 148 2.0
e 40 379 1.0
e 40 612 1.0
e 41 483 1.0
e 41 351 2.0
e 41 434 2.0
e 41 233 1.0
e 42 192 17.0
e 42 324 1.0
e 42 152 2.0
e 42 567 1.0
e 43 429 2.0
e 43 354 2.0
e 43 171 2.0
e 43 607 1.0
e 44 183 14.0
e 44 159 31.0
e 44 341 37.0
e 44 483 1.0
e 45 631 15.0
e 45 1 1.0
e 45 72 12.0
e 45 326 2.0
e 46 481 1.0
e 46 510 1.0
e 46 275 3.0
e 46 175 1.0
e 47 446 3.0
e 47 637 1.0
e 47 81 2.0
e 47 500 1.0
e 48 83 1.0
e 48 564 1.0
e 48 317 1.0
e 48 573 42.0
e 49 96 1.0
e 49 118 27.0
e 49 585 13.0
e 49 478 43.0
e 50 120 2.0
e 50 374 1.0
e 50 372 2.0
e 50 590 8.0
e 51 236 1.0
e 51 481 1.0
e 51 444 1.0
e 51 75 1.0
e 52 300 1.0
e 52 313 1.0
e 52 273 1.0
e 52 588 1.0
e 53 496 1.0
e 53 542 1.0
e 53 95 1.0
e 53 333 1.0
e 54 339 1.0
e 54 499 1.0
e 54 235 1.0
e 54 374 2.0
e 55 512 1.0
e 55 193 1.0
e 55 88 2.0
e 55 67 1.0
e 56 216 1.0
e 56 595 1.0
e 56 488 3.0
e 56 98 1.0
e 57 372 1.0
e 57 459 1.0
e 57 441 1.0
e 57 119 1.0
e 58 164 1.0
e 58 261 1.0
e 58 98 1.0
e 58 110 1.0
e 59 90 49.0
e 59 267 20.0
e 59 600 7.0
e 59 586 44.0
e 60 435 42.0
e 60 386 29.0
e 60 339 3.0
e 60 431 42.0
e 60 274 29.0
e 60 404 41.0
e 60 437 6.0
e 60 556 14.0
e 61 101 1.0
e 61 202 1.0
e 61 332 2.0
e 61 159 1.0
e 62 422 1.0
e 62 303 1.0
e 62 315 1.0
e 62 142 44.0
e 63 612 1.0
e 63 232 1.0
e 63 436 1.0
e 63 466 1.0
e 64 309 1.0
e 64 627 1.0
e 64 513 1.0
e 64 568 1.0
e 65 165 40.0
e 65 428 9.0
e 65 17 12.0
e 65 518 23.0
e 65 384 12.0
e 66 95 1.0
e 66 331 2.0
e 66 322 1.0
e 66 15 1.0
e 67 374 1.0
e 67 209 1.0
e 67 593 3.0
e 67 286 1.0
e 68 233 1.0
e 68 340 1.0
e 68 223 1.0
e 68 266 2.0
e 69 9 1.0
e 69 11 1.0
e 69 568 1.0
e 69 565 45.0
e 70 251 1.0
e 70 103 2.0
e 70 547 1.0
e 70 488 1.0
e 71 21 25.0
e 71 358 36.0
e 71 225 40.0
e 71 312 27.0
e 71 397 11.0
e 71 439 25.0
e 71 624 49.0
e 71 330 37.0
e 71 453 35.0
e 72 347 46.0
e 72 614 48.0
e 72 200 23.0
e 72 134 47.0
e 73 61 1.0
e 73 191 1.0
e 73 377 1.0
e 73 18 1.0
e 74 503 1.0
e 74 272 2.0
e 74 381 1.0
e 74 539 1.0
e 75 309 1.0
e 75 587 1.0
e 75 381 2.0
e 75 561 1.0
e 76 180 1.0
e 76 382 3.0
e 76 210 2.0
e 76 295 1.0
e 77 467 26.0
e 77 231 1.0
e 77 332 1.0
e 77 524 1.0
e 78 400 1.0
e 78 628 1.0
e 78 64 3.0
e 79 277 1.0
e 79 613 1.0
e 79 256 1.0
e 79 227 1.0
e 80 261 1.0
e 80 229 1.0
e 80 31 1.0
e 80 237 3.0
e 81 552 2.0
e 81 522 1.0
e 81 215 1.0
e 81 230 2.0
e 82 367 1.0
e 82 265 1.0
e 82 520 2.0
e 82 435 1.0
e 83 121 1.0
e 83 120 1.0
e 83 584 1.0
e 83 507 1.0
e 84 469 1.0
e 84 506 1.0
e 84 601 1.0
e 84 104 1.0
e 85 164 23.0
e 85 580 18.0
e 85 507 5.0
e 85 5 34.0
e 86 366 1.0
e 86 307 1.0
e 86 108 2.0
e 86 380 1.0
e 87 422 3.0
e 87 551 1.0
e 87 568 1.0
e 87 470 2.0
e 88 625 9.0
e 88 406 1.0
e 88 372 1.0
e 88 291 10.0
e 89 325 1.0
e 89 130 1.0
e 89 451 1.0
e 89 263 1.0
e 90 566 1.0
e 90 486 1.0
e 90 291 4.0
e 90 424 1.0
e 91 180 1.0
e 91 614 1.0
e 91 147 1.0
e 91 136 1.0
e 92 466 1.0
e 92 350 1.0
e 92 31 1.0
e 92 594 1.0
e 93 43 2.0
e 93 188 3.0
e 93 545 19.0
e 93 575 3.0
e 94 372 1.0
e 94 171 1.0
e 94 439 29.0
e 94 502 1.0
e 95 277 1.0
e 95 287 1.0
e 95 104 1.0
e 95 437 10.0
e 96 578 1.0
e 96 459 1.0
e 96 401 2.0
e 96 609 1.0
e 97 620 1.0
e 97 35 1.0
e 97 399 2.0
e 97 635 1.0
e 98 6 1.0
e 98 322 1.0
e 98 289 1.0
e 98 413 2.0
e 99 592 2.0
e 99 540 17.0
e 99 601 1.0
e 99 143 1.0
e 100 65 43.0
e 100 471 3.0
e 100 449 1.0
e 100 95 1.0
e 101 26 25.0
e 101 129 1.0
e 101 487 2.0
e 101 166 2.0
e 102 445 2.0
e 102 272 2.0
e 102 324 1.0
e 102 38 1.0
e 103 126 1.0
e 103 251 1.0
e 103 406 1.0
e 103 47 1.0
e 104 462 2.0
e 104 356 2.0
e 104 423 1.0
e 104 334 1.0
e 105 211 1.0
e 105 280 2.0
e 105 390 1.0
e 105 533 4.0
e 106 615 2.0
e 106 421 1.0
e 106 99 1.0
e 106 167 2.0
e 107 398 1.0
e 107 626 1.0
e 107 487 2.0
e 107 194 2.0
e 108 271 2.0
e 108 260 45.0
e 108 45 1.0
e 108 461 1.0
e 109 146 1.0
e 109 213 2.0
e 109 585 1.0
e 109 533 17.0
e 110 510 2.0
e 110 0 14.0
e 110 594 2.0
e 110 185 1.0
e 111 126 12.0
e 111 251 49.0
e 111 393 24.0
e 111 65 46.0
e 111 517 24.0
e 112 580 1.0
e 112 273 1.0
e 112 615 1.0
e 112 139 1.0
e 113 462 1.0
e 113 49 22.0
e 113 185 1.0
e 113 270 1.0
e 114 21 1.0
e 114 245 1.0
e 114 111 49.0
e 114 237 49.0
e 115 427 2.0
e 115 21 1.0
e 115 383 33.0
e 115 352 7.0
e 116 556 19.0
e 116 484 2.0
e 116 418 2.0
e 116 315 1.0
e 117 448 2.0
e 117 183 1.0
e 117 452 1.0
e 117 290 1.0
e 118 578 1.0
e 118 234 1.0
e 118 552 1.0
e 118 107 1.0
e 119 250 1.0
e 119 355 2.0
e 119 560 2.0
e 119 117 1.0
e 120 19 2.0
e 120 117 2.0
e 120 42 1.0
e 120 224 1.0
e 121 287 1.0
e 121 531 2.0
e 121 172 1.0
e 121 380 1.0
e 122 308 1.0
e 122 14 1.0
e 122 380 1.0
e 122 220 1.0
e 123 98 1.0
e 123 458 1.0
e 123 298 1.0
e 123 452 3.0
e 124 373 1.0
e 124 4 23.0
e 124 600 1.0
e 124 99 2.0
e 125 452 2.0
e 125 8 1.0
e 125 371 19.0
e 125 465 2.0
e 126 130 1.0
e 126 187 2.0
e 126 118 1.0
e 126 44 15.0
e 127 394 1.0
e 127 448 1.0
e 127 443 1.0
e 127 581 1.0
e 128 459 1.0
e 128 175 2.0
e 128 521 1.0
e 128 509 1.0
e 129 537 1.0
e 129 315 2.0
e 129 555 1.0
e 129 612 2.0
e 130 75 1.0
e 130 443 1.0
e 130 528 1.0
e 130 557 2.0
e 131 337 2.0
e 131 442 1.0
e 131 541 1.0
e 131 546 1.0
e 132 460 1.0
e 132 484 1.0
e 132 200 1.0
e 132 221 1.0
e 133 30 30.0
e 133 193 42.0
e 133 207 36.0
e 133 278 16.0
e 134 609 1.0
e 134 540 48.0
e 134 359 30.0
e 134 577 1.0
e 135 206 40.0
e 135 591 1.0
e 135 122 1.0
e 135 244 1.0
e 136 257 2.0
e 136 148 2.0
e 136 155 19.0
e 136 47 2.0
e 137 582 1.0
e 137 116 1.0
e 137 220 1.0
e 137 491 1.0
e 138 199 1.0
e 138 192 28.0
e 138 418 1.0
e 138 124 1.0
e 139 175 1.0
e 139 544 1.0
e 139 158 1.0
e 139 104 1.0
e 140 85 26.0
e 140 457 1.0
e 140 546 1.0
e 140 125 2.0
e 141 488 1.0
e 141 284 1.0
e 141 304 1.0
e 141 149 2.0
e 142 349 36.0
e 142 637 37.0
e 142 253 39.0
e 142 496 36.0
e 142 26 40.0
e 142 274 8.0
e 143 259 2.0
e 143 247 2.0
e 143 559 2.0
e 143 387 2.0
e 144 198 1.0
e 144 435 1.0
e 144 292 1.0
e 144 478 1.0
e 145 570 3.0
e 145 121 1.0
e 145 440 2.0
e 145 68 1.0
e 146 116 2.0
e 146 334 2.0
e 146 145 2.0
e 146 1 2.0
e 147 453 17.0
e 147 259 1.0
e 147 136 1.0
e 147 465 2.0
e 148 190 1.0
e 148 382 1.0
e 148 619 1.0
e 148 239 3.0
e 149 393 2.0
e 149 119 2.0
e 149 536 27.0
e 149 504 2.0
e 150 103 1.0
e 150 511 1.0
e 150 412 1.0
e 150 403 1.0
e 151 216 24.0
e 151 495 1.0
e 151 32 9.0
e 151 629 13.0
e 152 247 19.0
e 152 606 2.0
e 152 341 2.0
e 152 561 1.0
e 153 266 1.0
e 153 449 1.0
e 153 315 1.0
e 153 475 1.0
e 154 498 1.0
e 154 337 2.0
e 154 257 1.0
e 154 563 1.0
e 155 490 28.0
e 155 140 39.0
e 155 410 34.0
e 155 220 2.0
e 155 525 11.0
e 155 467 25.0
e 155 133 21.0
e 156 480 1.0
e 156 342 1.0
e 156 559 1.0
e 156 98 1.0
e 157 196 1.0
e 157 463 2.0
e 157 149 1.0
e 157 35 3.0
e 158 546 1.0
e 158 168 1.0
e 158 16 1.0
e 158 552 1.0
e 159 617 1.0
e 159 280 1.0
e 159 84 1.0
e 159 9 1.0
e 160 296 48.0
e 160 482 28.0
e 160 251 9.0
e 160 320 41.0
e 160 142 7.0
e 161 101 1.0
e 161 176 1.0
e 161 151 26.0
e 161 401 3.0
e 162 193 2.0
e 162 141 2.0
e 162 370 2.0
e 162 564 2.0
e 163 122 1.0
e 163 607 1.0
e 163 560 1.0
e 163 231 1.0
e 164 303 1.0
e 164 439 2.0
e 164 521 1.0
e 164 244 1.0
e 165 402 1.0
e 165 4 29.0
e 165 137 1.0
e 165 89 1.0
e 166 60 10.0
e 166 498 3.0
e 166 635 2.0
e 166 302 1.0
e 167 6 1.0
e 167 115 1.0
e 167 176 1.0
e 167 136 2.0
e 168 597 14.0
e 168 610 3.0
e 168 349 1.0
e 168 563 1.0
e 169 346 11.0
e 169 384 46.0
e 169 512 7.0
e 169 306 1.0
e 169 27 10.0
e 169 397 34.0
e 169 197 44.0
e 170 383 24.0
e 170 414 27.0
e 170 24 25.0
e 170 485 1.0
e 170 60 43.0
e 171 358 1.0
e 171 277 1.0
e 171 607 2.0
e 171 474 1.0
e 172 42 1.0
e 172 118 1.0
e 172 254 1.0
e 172 237 2.0
e 173 598 1.0
e 173 488 1.0
e 173 121 1.0
e 173 382 1.0
e 174 202 1.0
e 174 627 1.0
e 174 418 1.0
e 174 393 1.0
e 175 536 13.0
e 175 94 1.0
e 175 115 1.0
e 175 171 1.0
e 176 140 1.0
e 176 582 1.0
e 176 343 1.0
e 176 52 1.0
e 177 313 1.0
e 177 472 2.0
e 177 339 2.0
e 177 453 33.0
e 178 173 1.0
e 178 419 1.0
e 178 128 1.0
e 178 213 1.0
e 179 461 1.0
e 179 373 1.0
e 179 282 1.0
e 179 140 1.0
e 180 384 20.0
e 180 370 1.0
e 180 505 13.0
e 180 596 1.0
e 181 249 2.0
e 181 187 1.0
e 181 214 1.0
e 181 468 32.0
e 182 228 2.0
e 182 189 1.0
e 182 99 1.0
e 182 450 1.0
e 183 592 44.0
e 183 73 29.0
e 183 229 35.0
e 183 346 21.0
e 184 495 1.0
e 184 416 2.0
e 184 618 1.0
e 184 461 1.0
e 185 56 1.0
e 185 604 1.0
e 185 62 1.0
e 185 576 1.0
e 186 317 1.0
e 186 626 1.0
e 186 159 1.0
e 186 251 1.0
e 187 226 2.0
e 187 159 1.0
e 187 421 2.0
e 187 246 2.0
e 188 348 35.0
e 188 307 1.0
e 188 412 1.0
e 188 45 1.0
e 189 73 1.0
e 189 530 1.0
e 189 321 1.0
e 189 487 1.0
e 190 472 1.0
e 190 404 24.0
e 190 384 30.0
e 190 117 1.0
e 191 371 42.0
e 191 537 2.0
e 191 278 1.0
e 191 241 14.0
e 192 193 30.0
e 192 503 33.0
e 192 328 26.0
e 192 405 1.0
e 193 191 1.0
e 193 59 46.0
e 193 312 1.0
e 194 101 2.0
e 194 295 1.0
e 194 427 1.0
e 194 183 32.0
e 195 322 2.0
e 195 203 1.0
e 195 361 3.0
e 195 84 2.0
e 196 312 1.0
e 196 356 1.0
e 196 633 1.0
e 196 163 1.0
e 197 68 1.0
e 197 54 1.0
e 197 310 5.0
e 197 272 41.0
e 197 535 25.0
e 197 160 6.0
e 198 269 1.0
e 198 580 1.0
e 198 192 19.0
e 198 549 2.0
e 199 230 2.0
e 199 352 48.0
e 199 585 1.0
e 199 120 1.0
e 200 407 1.0
e 200 410 28.0
e 200 416 2.0
e 200 180 1.0
e 201 373 1.0
e 201 343 1.0
e 201 514 2.0
e 201 15 1.0
e 202 268 1.0
e 202 528 1.0
e 202 1 1.0
e 202 489 1.0
e 203 521 1.0
e 203 576 2.0
e 203 467 48.0
e 203 568 1.0
e 204 436 1.0
e 204 274 47.0
e 204 8 2.0
e 204 390 1.0
e 205 43 2.0
e 205 64 1.0
e 205 356 2.0
e 205 377 1.0
e 206 87 31.0
e 206 552 6.0
e 206 430 36.0
e 206 211 29.0
e 206 631 6.0
e 206 240 24.0
e 206 517 49.0
e 207 493 17.0
e 207 584 25.0
e 207 532 44.0
e 207 408 21.0
e 207 330 18.0
e 208 453 21.0
e 208 464 14.0
e 208 68 19.0
e 208 137 33.0
e 208 404 10.0
e 208 468 42.0
e 208 525 34.0
e 208 348 31.0
e 209 365 6.0
e 209 475 1.0
e 209 101 1.0
e 209 366 1.0
e 210 560 1.0
e 210 100 1.0
e 210 615 1.0
e 210 509 1.0
e 211 572 1.0
e 211 311 1.0
e 211 393 2.0
e 211 611 1.0
e 212 510 2.0
e 212 236 1.0
e 212 330 7.0
e 212 462 2.0
e 213 543 2.0
e 213 349 1.0
e 213 342 1.0
e 213 275 1.0
e 214 550 1.0
e 214 182 1.0
e 214 222 1.0
e 214 75 1.0
e 215 45 1.0
e 215 86 2.0
e 215 190 3.0
e 215 383 16.0
e 216 388 1.0
e 216 358 1.0
e 216 183 13.0
e 216 178 1.0
e 217 411 1.0
e 217 128 1.0
e 217 163 1.0
e 217 491 1.0
e 218 383 24.0
e 218 327 19.0
e 218 484 1.0
e 218 135 1.0
e 219 314 1.0
e 219 203 1.0
e 219 12 1.0
e 219 19 1.0
e 220 400 2.0
e 220 201 1.0
e 220 536 8.0
e 220 117 2.0
e 221 611 3.0
e 221 130 1.0
e 221 420 1.0
e 221 495 1.0
e 222 217 1.0
e 222 44 15.0
e 222 405 1.0
e 222 297 2.0
e 223 395 8.0
e 223 547 1.0
e 223 410 36.0
e 223 220 1.0
e 224 182 2.0
e 224 260 16.0
e 224 186 2.0
e 224 379 2.0
e 225 545 40.0
e 225 509 1.0
e 225 418 1.0
e 225 261 1.0
e 226 474 1.0
e 226 517 22.0
e 226 486 1.0
e 226 110 2.0
e 227 159 2.0
e 227 288 1.0
e 227 2 25.0
e 227 620 1.0
e 228 472 1.0
e 228 252 1.0
e 228 108 2.0
e 228 308 1.0
e 229 515 1.0
e 229 11 1.0
e 229 98 3.0
e 230 560 1.0
e 230 0 21.0
e 230 311 2.0
e 230 536 37.0
e 231 610 1.0
e 231 273 3.0
e 231 390 1.0
e 231 603 1.0
e 232 50 1.0
e 232 501 1.0
e 232 129 1.0
e 232 358 1.0
e 233 114 1.0
e 233 327 19.0
e 233 625 7.0
e 233 509 1.0
e 234 298 1.0
e 234 540 5.0
e 234 351 2.0
e 234 123 1.0
e 235 547 1.0
e 235 299 1.0
e 235 443 1.0
e 235 225 1.0
e 236 44 6.0
e 236 505 11.0
e 236 475 1.0
e 236 49 32.0
e 237 490 46.0
e 237 127 6.0
e 237 549 14.0
e 237 558 39.0
e 238 194 2.0
e 238 148 2.0
e 238 248 39.0
e 238 521 1.0
e 239 429 2.0
e 239 1 1.0
e 239 272 1.0
e 239 489 1.0
e 240 468 21.0
e 240 25 36.0
e 240 62 14.0
e 240 221 6.0
e 240 330 34.0
e 240 590 12.0
e 240 111 11.0
e 240 525 10.0
e 241 257 8.0
e 241 172 43.0
e 241 248 31.0
e 241 268 42.0
e 242 201 2.0
e 242 558 2.0
e 242 370 1.0
e 242 623 1.0
e 243 22 3.0
e 243 11 1.0
e 243 76 1.0
e 243 336 1.0
e 244 477 2.0
e 244 603 2.0
e 244 374 2.0
e 244 44 27.0
e 245 518 2.0
e 245 307 1.0
e 245 418 1.0
e 245 506 1.0
e 246 251 1.0
e 246 476 1.0
e 246 196 1.0
e 246 244 2.0
e 247 279 34.0
e 247 0 31.0
e 247 118 31.0
e 247 379 30.0
e 247 197 13.0
e 247 348 24.0
e 248 430 19.0
e 248 351 20.0
e 248 571 30.0
e 248 81 14.0
e 248 151 8.0
e 248 355 25.0
e 248 397 9.0
e 249 209 2.0
e 249 518 1.0
e 249 276 1.0
e 249 489 1.0
e 250 2 7.0
e 250 378 1.0
e 250 495 1.0
e 250 236 1.0
e 251 508 1.0
e 251 91 1.0
e 251 424 1.0
e 251 120 1.0
e 252 368 1.0
e 252 439 12.0
e 252 261 2.0
e 252 601 2.0
e 253 592 2.0
e 253 623 2.0
e 253 515 1.0
e 253 254 2.0
e 254 448 1.0
e 254 330 22.0
e 254 559 1.0
e 254 392 1.0
e 255 360 1.0
e 255 74 1.0
e 255 274 48.0
e 255 363 1.0
e 256 124 1.0
e 256 540 40.0
e 256 48 2.0
e 256 49 44.0
e 257 390 1.0
e 257 114 1.0
e 257 463 1.0
e 257 554 1.0
e 258 76 2.0
e 258 549 28.0
e 258 42 1.0
e 258 376 1.0
e 259 341 1.0
e 259 463 1.0
e 259 161 1.0
e 259 101 1.0
e 260 296 30.0
e 260 636 7.0
e 260 47 15.0
e 260 475 27.0
e 261 566 1.0
e 261 577 2.0
e 261 367 2.0
e 261 209 1.0
e 262 193 2.0
e 262 72 5.0
e 262 392 2.0
e 262 498 1.0
e 263 76 2.0
e 263 437 11.0
e 263 291 16.0
e 263 393 1.0
e 264 123 1.0
e 264 415 2.0
e 264 344 1.0
e 264 454 1.0
e 265 424 1.0
e 265 224 2.0
e 265 556 31.0
e 265 4 29.0
e 266 148 2.0
e 266 323 1.0
e 266 624 43.0
e 266 612 1.0
e 267 516 1.0
e 267 465 1.0
e 267 5 2.0
e 267 619 1.0
e 268 410 3.0
e 268 246 1.0
e 268 35 2.0
e 268 309 1.0
e 269 211 1.0
e 269 418 1.0
e 269 452 2.0
e 269 561 1.0
e 270 426 1.0
e 270 529 1.0
e 270 436 1.0
e 270 72 43.0
e 271 201 1.0
e 271 280 2.0
e 271 249 1.0
e 271 335 2.0
e 272 161 2.0
e 272 258 2.0
e 272 470 1.0
e 272 419 1.0
e 273 96 1.0
e 273 34 47.0
e 273 223 1.0
e 273 349 1.0
e 274 303 21.0
e 274 106 47.0
e 274 369 32.0
e 274 413 40.0
e 275 620 2.0
e 275 163 2.0
e 275 601 1.0
e 275 241 44.0
e 276 359 3.0
e 276 320 1.0
e 276 113 1.0
e 276 440 2.0
e 277 311 2.0
e 277 449 1.0
e 277 402 1.0
e 277 527 1.0
e 278 358 1.0
e 278 252 1.0
e 278 251 1.0
e 278 448 1.0
e 279 190 1.0
e 279 58 3.0
e 279 270 1.0
e 279 531 2.0
e 280 349 1.0
e 280 0 10.0
e 280 607 1.0
e 280 601 1.0
e 281 177 1.0
e 281 16 2.0
e 281 414 2.0
e 281 49 45.0
e 282 538 1.0
e 282 143 3.0
e 282 411 1.0
e 282 142 24.0
e 283 396 2.0
e 283 268 1.0
e 283 65 22.0
e 283 432 2.0
e 284 4 26.0
e 284 491 1.0
e 284 323 2.0
e 284 286 2.0
e 285 149 1.0
e 285 365 35.0
e 285 381 1.0
e 285 241 48.0
e 286 617 2.0
e 286 249 2.0
e 286 237 27.0
e 286 589 2.0
e 287 403 1.0
e 287 356 1.0
e 287 144 1.0
e 287 37 1.0
e 288 59 28.0
e 288 270 1.0
e 288 185 2.0
e 288 369 1.0
e 289 72 3.0
e 289 9 2.0
e 289 500 1.0
e 289 352 39.0
e 290 136 2.0
e 290 391 1.0
e 290 479 1.0
e 290 383 39.0
e 291 308 22.0
e 291 5 10.0
e 291 29 43.0
e 291 593 35.0
e 292 461 1.0
e 292 256 1.0
e 292 236 1.0
e 292 586 1.0
e 293 210 1.0
e 293 420 1.0
e 293 239 1.0
e 293 96 2.0
e 294 0 21.0
e 294 319 1.0
e 294 229 2.0
e 294 82 2.0
e 295 492 2.0
e 295 370 1.0
e 295 166 2.0
e 295 564 1.0
e 296 259 1.0
e 296 116 1.0
e 296 520 2.0
e 296 42 1.0
e 297 533 22.0
e 297 242 2.0
e 297 51 1.0
e 297 188 1.0
e 298 442 1.0
e 298 381 1.0
e 298 85 20.0
e 298 349 1.0
e 299 339 2.0
e 299 86 2.0
e 299 580 1.0
e 299 371 42.0
e 300 451 2.0
e 300 198 1.0
e 300 520 1.0
e 300 469 1.0
e 301 371 43.0
e 301 338 1.0
e 301 18 1.0
e 301 544 1.0
e 302 13 1.0
e 302 478 1.0
e 302 601 1.0
e 302 201 2.0
e 303 134 1.0
e 303 191 2.0
e 303 534 1.0
e 303 524 2.0
e 304 47 1.0
e 304 46 1.0
e 304 153 2.0
e 304 42 1.0
e 305 555 1.0
e 305 545 3.0
e 305 389 1.0
e 305 106 1.0
e 306 241 11.0
e 306 258 44.0
e 306 595 1.0
e 306 90 24.0
e 307 164 1.0
e 307 237 25.0
e 307 239 1.0
e 307 553 1.0
e 308 563 1.0
e 308 599 1.0
e 308 30 1.0
e 308 113 1.0
e 309 399 2.0
e 309 423 1.0
e 309 340 2.0
e 309 77 1.0
e 310 364 2.0
e 310 478 1.0
e 310 493 2.0
e 310 200 1.0
e 311 42 1.0
e 311 130 1.0
e 311 307 1.0
e 311 269 1.0
e 312 456 1.0
e 312 95 1.0
e 312 498 1.0
e 312 625 26.0
e 313 55 1.0
e 313 30 1.0
e 313 387 1.0
e 313 91 1.0
e 314 463 1.0
e 314 546 1.0
e 314 391 1.0
e 314 48 1.0
e 315 24 1.0
e 315 284 1.0
e 315 432 1.0
e 315 446 2.0
e 316 349 1.0
e 316 560 1.0
e 316 21 1.0
e 316 608 1.0
e 317 387 1.0
e 317 314 1.0
e 317 398 1.0
e 317 329 40.0
e 318 507 1.0
e 318 308 1.0
e 318 559 1.0
e 318 168 1.0
e 319 573 46.0
e 319 575 1.0
e 319 591 1.0
e 319 243 1.0
e 320 564 1.0
e 320 395 34.0
e 320 168 1.0
e 320 0 1.0
e 321 405 1.0
e 321 351 1.0
e 321 81 1.0
e 321 495 1.0
e 322 318 1.0
e 322 65 7.0
e 322 34 17.0
e 322 129 1.0
e 323 596 1.0
e 323 458 1.0
e 323 397 5.0
e 323 607 3.0
e 324 416 1.0
e 324 153 1.0
e 324 277 1.0
e 324 222 1.0
e 325 131 1.0
e 325 302 1.0
e 325 508 1.0
e 325 457 1.0
e 326 422 1.0
e 326 268 2.0
e 326 111 24.0
e 326 250 2.0
e 327 341 26.0
e 327 255 37.0
e 327 388 34.0
e 327 306 6.0
e 328 315 1.0
e 328 537 1.0
e 328 410 8.0
e 328 505 45.0
e 329 214 17.0
e 329 57 8.0
e 329 420 1.0
e 329 561 5.0
e 330 241 31.0
e 330 79 28.0
e 330 222 27.0
e 330 471 49.0
e 331 585 2.0
e 331 332 2.0
e 331 57 1.0
e 331 456 1.0
e 332 346 1.0
e 332 86 2.0
e 332 527 2.0
e 332 4 44.0
e 333 82 3.0
e 333 29 11.0
e 333 586 2.0
e 333 612 1.0
e 334 42 1.0
e 334 476 1.0
e 334 121 1.0
e 334 637 1.0
e 335 207 44.0
e 335 433 1.0
e 335 138 2.0
e 335 74 1.0
e 336 119 1.0
e 336 513 1.0
e 336 8 2.0
e 336 30 1.0
e 337 586 1.0
e 337 97 1.0
e 337 387 2.0
e 337 100 2.0
e 338 281 3.0
e 338 394 1.0
e 338 151 13.0
e 338 283 3.0
e 339 524 1.0
e 339 87 3.0
e 339 107 1.0
e 339 357 1.0
e 340 400 2.0
e 340 146 1.0
e 340 38 1.0
e 340 28 1.0
e 341 359 38.0
e 341 439 21.0
e 341 306 6.0
e 341 216 1.0
e 342 473 1.0
e 342 179 1.0
e 342 525 40.0
e 342 459 1.0
e 343 389 1.0
e 343 105 2.0
e 343 107 1.0
e 343 451 1.0
e 344 638 3.0
e 344 546 1.0
e 344 446 1.0
e 344 501 1.0
e 345 148 1.0
e 345 251 1.0
e 345 83 1.0
e 345 102 1.0
e 346 184 1.0
e 346 64 1.0
e 346 158 1.0
e 347 21 2.0
e 347 622 2.0
e 347 391 2.0
e 347 163 1.0
e 348 151 34.0
e 348 585 12.0
e 348 478 17.0
e 348 448 10.0
e 349 231 1.0
e 349 171 1.0
e 349 558 1.0
e 349 221 1.0
e 350 467 23.0
e 350 165 1.0
e 350 456 1.0
e 350 545 18.0
e 351 90 2.0
e 351 548 1.0
e 351 452 1.0
e 352 343 12.0
e 352 509 9.0
e 352 91 23.0
e 352 378 17.0
e 353 626 1.0
e 353 431 1.0
e 353 225 1.0
e 353 533 32.0
e 354 191 1.0
e 354 455 1.0
e 354 506 1.0
e 354 269 1.0
e 355 91 35.0
e 355 89 15.0
e 355 340 10.0
e 355 568 30.0
e 355 65 17.0
e 356 223 1.0
e 356 85 17.0
e 356 476 1.0
e 356 145 1.0
e 357 620 1.0
e 357 353 3.0
e 357 380 1.0
e 357 117 1.0
e 358 442 1.0
e 358 505 32.0
e 358 521 1.0
e 358 194 1.0
e 359 24 34.0
e 359 228 11.0
e 359 15 35.0
e 359 309 44.0
e 360 218 2.0
e 360 44 39.0
e 360 571 1.0
e 360 127 2.0
e 361 178 1.0
e 361 347 2.0
e 361 496 1.0
e 361 82 1.0
e 362 499 1.0
e 362 94 1.0
e 362 361 1.0
e 362 529 2.0
e 363 261 1.0
e 363 634 27.0
e 363 415 1.0
e 363 527 2.0
e 364 638 1.0
e 364 500 1.0
e 364 393 1.0
e 364 553 1.0
e 365 124 3.0
e 365 350 35.0
e 365 261 49.0
e 365 631 28.0
e 366 294 1.0
e 366 549 4.0
e 366 67 1.0
e 366 189 2.0
e 367 356 1.0
e 367 579 1.0
e 367 351 1.0
e 367 343 1.0
e 368 259 1.0
e 368 182 1.0
e 368 408 2.0
e 368 474 1.0
e 369 122 1.0
e 369 417 1.0
e 369 45 1.0
e 369 26 23.0
e 370 606 1.0
e 370 283 1.0
e 370 139 1.0
e 370 120 1.0
e 371 434 17.0
e 371 45 12.0
e 371 31 44.0
e 371 141 41.0
e 372 475 1.0
e 372 464 1.0
e 372 172 1.0
e 372 36 35.0
e 373 628 1.0
e 373 514 1.0
e 373 433 1.0
e 373 588 1.0
e 374 406 2.0
e 374 63 1.0
e 374 74 1.0
e 374 131 1.0
e 375 520 1.0
e 375 108 1.0
e 375 590 42.0
e 375 41 1.0
e 376 47 1.0
e 376 132 1.0
e 376 433 2.0
e 376 428 1.0
e 377 549 36.0
e 377 380 2.0
e 377 546 1.0
e 377 522 1.0
e 378 348 7.0
e 378 496 1.0
e 378 637 1.0
e 378 85 22.0
e 379 423 1.0
e 379 359 47.0
e 379 384 44.0
e 379 28 1.0
e 380 508 2.0
e 380 59 18.0
e 380 154 1.0
e 380 624 46.0
e 381 347 3.0
e 381 528 1.0
e 381 534 2.0
e 381 635 1.0
e 382 407 1.0
e 382 25 1.0
e 382 243 1.0
e 382 470 1.0
e 383 127 17.0
e 383 379 24.0
e 383 157 35.0
e 383 625 16.0
e 384 85 31.0
e 384 209 25.0
e 384 431 21.0
e 384 601 31.0
e 385 338 1.0
e 385 412 2.0
e 385 108 2.0
e 385 198 1.0
e 386 323 2.0
e 386 606 1.0
e 386 193 1.0
e 386 425 2.0
e 387 238 1.0
e 387 514 1.0
e 387 76 2.0
e 387 259 1.0
e 388 228 2.0
e 388 160 31.0
e 388 466 2.0
e 388 222 1.0
e 389 14 1.0
e 389 431 1.0
e 389 622 1.0
e 389 391 1.0
e 390 380 1.0
e 390 124 1.0
e 390 599 1.0
e 390 83 1.0
e 391 182 1.0
e 391 595 1.0
e 391 415 1.0
e 391 24 1.0
e 392 91 1.0
e 392 406 1.0
e 392 356 2.0
e 392 321 1.0
e 393 140 1.0
e 393 138 1.0
e 393 415 1.0
e 393 383 45.0
e 394 304 1.0
e 394 171 1.0
e 394 15 1.0
e 394 167 1.0
e 395 31 19.0
e 395 95 16.0
e 395 566 25.0
e 395 378 47.0
e 396 469 2.0
e 396 15 1.0
e 396 118 1.0
e 396 243 1.0
e 397 282 41.0
e 397 594 10.0
e 397 605 21.0
e 397 258 31.0
e 398 590 18.0
e 398 129 1.0
e 398 435 1.0
e 398 158 1.0
e 399 450 2.0
e 399 266 2.0
e 399 2 20.0
e 399 430 1.0
e 400 404 43.0
e 400 360 2.0
e 400 81 1.0
e 400 232 1.0
e 401 564 2.0
e 401 81 2.0
e 401 487 1.0
e 401 583 1.0
e 402 577 1.0
e 402 139 1.0
e 402 437 48.0
e 402 272 1.0
e 403 173 1.0
e 403 40 1.0
e 403 432 1.0
e 403 213 1.0
e 404 135 49.0
e 404 225 15.0
e 404 195 35.0
e 404 233 8.0
e 405 63 1.0
e 405 515 2.0
e 405 300 3.0
e 405 509 2.0
e 406 570 2.0
e 406 541 1.0
e 406 90 1.0
e 406 304 1.0
e 407 587 1.0
e 407 493 1.0
e 407 307 1.0
e 407 496 1.0
e 408 627 1.0
e 408 146 2.0
e 408 191 2.0
e 408 114 1.0
e 409 548 1.0
e 409 529 2.0
e 409 324 1.0
e 409 190 1.0
e 410 57 26.0
e 410 477 22.0
e 410 76 47.0
e 410 566 2.0
e 411 580 1.0
e 411 516 1.0
e 411 102 1.0
e 411 326 1.0
e 412 281 1.0
e 412 76 2.0
e 412 170 47.0
e 412 511 1.0
e 413 592 1.0
e 413 251 2.0
e 413 415 2.0
e 413 609 1.0
e 414 314 1.0
e 414 112 1.0
e 414 109 1.0
e 414 428 1.0
e 415 521 1.0
e 415 468 42.0
e 415 46 2.0
e 415 303 1.0
e 416 513 1.0
e 416 107 1.0
e 416 251 1.0
e 416 352 19.0
e 417 333 2.0
e 417 305 2.0
e 417 330 21.0
e 417 5 1.0
e 418 334 1.0
e 418 123 1.0
e 418 472 1.0
e 418 52 1.0
e 419 168 1.0
e 419 229 1.0
e 419 311 1.0
e 419 347 2.0
e 420 556 12.0
e 420 121 1.0
e 420 490 1.0
e 420 3 1.0
e 421 548 1.0
e 421 485 3.0
e 421 547 1.0
e 421 501 1.0
e 422 286 1.0
e 422 332 2.0
e 422 381 1.0
e 422 354 1.0
e 423 572 1.0
e 423 216 1.0
e 423 54 2.0
e 423 14 1.0
e 424 57 2.0
e 424 305 2.0
e 424 467 30.0
e 424 561 1.0
e 425 216 1.0
e 425 319 1.0
e 425 256 1.0
e 425 281 1.0
e 426 470 1.0
e 426 585 2.0
e 426 306 19.0
e 426 618 1.0
e 427 82 1.0
e 427 261 1.0
e 427 86 1.0
e 427 282 1.0
e 428 509 1.0
e 428 104 1.0
e 428 207 19.0
e 429 529 2.0
e 429 85 2.0
e 429 604 1.0
e 429 97 1.0
e 430 119 1.0
e 430 427 1.0
e 430 121 1.0
e 430 554 1.0
e 431 423 1.0
e 431 336 1.0
e 431 175 1.0
e 431 359 44.0
e 432 146 1.0
e 432 394 1.0
e 432 409 1.0
e 432 261 1.0
e 433 395 46.0
e 433 621 1.0
e 433 522 2.0
e 433 1 2.0
e 434 79 1.0
e 434 493 2.0
e 434 166 1.0
e 434 400 2.0
e 435 474 1.0
e 435 119 1.0
e 435 500 2.0
e 435 551 1.0
e 436 421 1.0
e 436 291 46.0
e 436 42 1.0
e 436 173 1.0
e 437 26 8.0
e 437 153 11.0
e 437 381 18.0
e 437 47 28.0
e 438 399 1.0
e 438 232 1.0
e 438 16 2.0
e 438 533 30.0
e 439 427 30.0
e 439 585 45.0
e 439 365 36.0
e 439 357 31.0
e 440 387 1.0
e 440 25 3.0
e 440 26 39.0
e 440 99 2.0
e 441 16 1.0
e 441 199 1.0
e 441 471 1.0
e 441 635 1.0
e 442 316 1.0
e 442 427 1.0
e 442 342 1.0
e 442 42 1.0
e 443 134 1.0
e 443 472 1.0
e 443 223 1.0
e 443 193 1.0
e 444 560 1.0
e 444 80 2.0
e 444 367 1.0
e 444 583 1.0
e 445 192 47.0
e 445 490 3.0
e 445 16 2.0
e 445 328 2.0
e 446 88 1.0
e 446 541 2.0
e 446 588 1.0
e 446 523 1.0
e 447 284 2.0
e 447 259 1.0
e 447 411 1.0
e 448 212 1.0
e 448 406 1.0
e 448 573 34.0
e 448 399 1.0
e 449 301 1.0
e 449 420 1.0
e 449 47 1.0
e 449 552 2.0
e 450 119 1.0
e 450 159 1.0
e 450 146 3.0
e 450 485 2.0
e 451 461 2.0
e 451 551 2.0
e 451 448 1.0
e 451 327 8.0
e 452 637 1.0
e 452 162 2.0
e 452 288 1.0
e 452 384 37.0
e 453 3 11.0
e 453 372 27.0
e 453 479 30.0
e 453 257 22.0
e 454 133 9.0
e 454 496 1.0
e 454 567 1.0
e 454 14 1.0
e 455 101 1.0
e 455 203 1.0
e 455 227 1.0
e 455 437 19.0
e 456 328 1.0
e 456 141 1.0
e 456 291 23.0
e 456 606 1.0
e 457 409 1.0
e 457 450 1.0
e 457 279 1.0
e 457 628 1.0
e 458 327 48.0
e 458 103 2.0
e 458 37 1.0
e 458 91 1.0
e 459 160 34.0
e 459 85 34.0
e 459 163 1.0
e 459 428 1.0
e 460 357 1.0
e 460 99 1.0
e 460 250 2.0
e 460 55 1.0
e 461 438 1.0
e 461 537 1.0
e 461 386 1.0
e 461 289 1.0
e 462 413 1.0
e 462 535 12.0
e 462 315 1.0
e 462 497 2.0
e 463 270 1.0
e 463 191 1.0
e 463 474 1.0
e 463 82 1.0
e 464 49 2.0
e 464 178 1.0
e 464 50 1.0
e 464 93 2.0
e 465 90 1.0
e 465 503 1.0
e 465 265 1.0
e 465 433 2.0
e 466 223 1.0
e 466 410 1.0
e 466 476 2.0
e 466 342 1.0
e 467 327 18.0
e 467 10 37.0
e 467 102 42.0
e 467 406 21.0
e 468 162 2.0
e 468 26 13.0
e 468 535 33.0
e 468 591 33.0
e 469 352 48.0
e 469 629 1.0
e 469 392 2.0
e 469 591 2.0
e 470 411 1.0
e 470 126 1.0
e 470 6 1.0
e 470 292 1.0
e 471 31 1.0
e 471 6 2.0
e 471 28 2.0
e 471 251 2.0
e 472 305 3.0
e 472 304 1.0
e 472 333 2.0
e 472 490 1.0
e 473 418 1.0
e 473 176 1.0
e 473 613 1.0
e 473 310 2.0
e 474 191 1.0
e 474 487 2.0
e 474 308 1.0
e 474 608 1.0
e 475 2 23.0
e 475 137 1.0
e 475 530 1.0
e 475 132 1.0
e 476 74 1.0
e 476 20 1.0
e 476 517 5.0
e 476 549 33.0
e 477 204 1.0
e 477 195 1.0
e 477 88 2.0
e 477 553 2.0
e 478 322 1.0
e 478 512 1.0
e 478 153 1.0
e 478 254 1.0
e 479 15 1.0
e 479 313 1.0
e 479 513 1.0
e 479 556 25.0
e 480 16 1.0
e 480 594 1.0
e 480 424 3.0
e 480 144 1.0
e 481 613 2.0
e 481 165 1.0
e 481 40 1.0
e 481 122 1.0
e 482 412 2.0
e 482 532 1.0
e 482 31 1.0
e 482 238 2.0
e 483 535 44.0
e 483 620 1.0
e 483 155 31.0
e 483 611 1.0
e 484 312 1.0
e 484 306 5.0
e 484 31 1.0
e 484 559 1.0
e 485 136 1.0
e 485 532 1.0
e 485 361 3.0
e 485 92 2.0
e 486 229 2.0
e 486 493 1.0
e 486 557 2.0
e 486 560 1.0
e 487 169 35.0
e 487 200 1.0
e 487 374 2.0
e 487 610 1.0
e 488 436 1.0
e 488 441 1.0
e 488 267 1.0
e 488 516 1.0
e 489 515 1.0
e 489 252 2.0
e 489 633 1.0
e 489 226 2.0
e 490 469 1.0
e 490 484 1.0
e 490 293 1.0
e 490 125 1.0
e 491 326 1.0
e 491 93 1.0
e 491 469 1.0
e 491 309 2.0
e 492 284 1.0
e 492 49 40.0
e 492 21 2.0
e 492 52 2.0
e 493 599 1.0
e 493 323 1.0
e 493 94 1.0
e 493 359 15.0
e 494 265 1.0
e 494 522 1.0
e 494 315 1.0
e 494 161 1.0
e 495 575 1.0
e 495 528 1.0
e 495 581 1.0
e 495 260 12.0
e 496 36 48.0
e 496 522 1.0
e 496 504 1.0
e 496 306 8.0
e 497 63 1.0
e 497 589 1.0
e 497 47 1.0
e 497 129 1.0
e 498 19 1.0
e 498 611 2.0
e 498 363 1.0
e 498 555 1.0
e 499 385 1.0
e 499 173 1.0
e 499 270 2.0
e 499 609 1.0
e 500 528 3.0
e 500 9 2.0
e 500 196 1.0
e 500 441 1.0
e 501 77 1.0
e 501 329 41.0
e 501 348 2.0
e 501 283 1.0
e 502 108 1.0
e 502 9 1.0
e 502 636 1.0
e 502 369 1.0
e 503 482 1.0
e 503 315 1.0
e 503 153 2.0
e 503 94 1.0
e 504 357 1.0
e 504 161 2.0
e 504 347 1.0
e 504 532 1.0
e 505 409 20.0
e 505 69 40.0
e 505 37 40.0
e 505 190 35.0
e 506 90 1.0
e 506 352 6.0
e 506 580 1.0
e 506 339 1.0
e 507 517 1.0
e 507 257 1.0
e 507 128 1.0
e 508 394 1.0
e 508 23 1.0
e 508 170 22.0
e 508 342 2.0
e 509 111 22.0
e 509 414 1.0
e 509 311 1.0
e 509 563 2.0
e 510 481 1.0
e 510 478 2.0
e 510 404 13.0
e 510 242 2.0
e 511 586 1.0
e 511 101 1.0
e 511 296 2.0
e 511 111 27.0
e 512 396 1.0
e 512 553 2.0
e 512 392 1.0
e 512 157 2.0
e 513 573 7.0
e 513 458 2.0
e 513 379 1.0
e 513 359 33.0
e 514 337 1.0
e 514 518 1.0
e 514 220 1.0
e 514 556 16.0
e 515 80 3.0
e 515 53 1.0
e 515 280 1.0
e 515 263 1.0
e 516 408 3.0
e 516 356 2.0
e 516 256 1.0
e 516 260 27.0
e 517 6 25.0
e 517 607 12.0
e 517 94 15.0
e 517 307 27.0
e 518 422 1.0
e 518 205 2.0
e 518 393 1.0
e 518 298 2.0
e 519 254 2.0
e 519 81 1.0
e 519 273 2.0
e 519 408 2.0
e 520 54 1.0
e 520 355 30.0
e 520 334 1.0
e 520 205 1.0
e 521 122 1.0
e 521 499 1.0
e 521 449 1.0
e 521 423 1.0
e 522 402 3.0
e 522 371 44.0
e 522 153 2.0
e 522 441 1.0
e 523 85 16.0
e 523 459 2.0
e 523 54 1.0
e 524 1 1.0
e 524 439 27.0
e 524 166 1.0
e 524 314 2.0
e 525 46 38.0
e 525 613 26.0
e 525 47 18.0
e 525 102 20.0
e 526 17 42.0
e 526 442 1.0
e 526 149 2.0
e 526 511 1.0
e 527 449 1.0
e 527 33 16.0
e 527 436 1.0
e 527 38 1.0
e 528 55 1.0
e 528 354 3.0
e 528 79 1.0
e 528 211 1.0
e 529 517 40.0
e 529 524 1.0
e 529 18 2.0
e 529 140 1.0
e 530 170 41.0
e 530 287 1.0
e 530 68 1.0
e 530 62 2.0
e 531 17 23.0
e 531 200 2.0
e 531 81 1.0
e 531 21 1.0
e 532 100 1.0
e 532 479 1.0
e 532 127 1.0
e 532 594 1.0
e 533 436 45.0
e 533 527 9.0
e 533 18 40.0
e 533 464 16.0
e 534 131 2.0
e 534 404 48.0
e 534 593 1.0
e 534 320 2.0
e 535 568 44.0
e 535 456 34.0
e 535 238 12.0
e 535 513 1.0
e 536 129 27.0
e 536 49 49.0
e 536 308 36.0
e 536 430 12.0
e 537 467 13.0
e 537 425 1.0
e 537 148 1.0
e 537 297 1.0
e 538 46 1.0
e 538 347 2.0
e 538 219 1.0
e 538 372 1.0
e 539 219 1.0
e 539 388 1.0
e 539 429 3.0
e 539 521 1.0
e 540 468 40.0
e 540 94 17.0
e 540 342 20.0
e 540 378 49.0
e 541 184 1.0
e 541 471 1.0
e 541 581 1.0
e 541 206 9.0
e 542 180 1.0
e 542 351 1.0
e 542 38 1.0
e 542 506 1.0
e 543 153 2.0
e 543 326 1.0
e 543 369 1.0
e 543 634 31.0
e 544 223 1.0
e 544 628 1.0
e 544 309 1.0
e 545 365 16.0
e 545 165 32.0
e 545 636 30.0
e 545 611 23.0
e 546 62 1.0
e 546 171 1.0
e 546 349 1.0
e 546 338 2.0
e 547 3 1.0
e 547 605 1.0
e 547 476 1.0
e 547 122 1.0
e 548 251 2.0
e 548 9 3.0
e 548 632 1.0
e 548 77 2.0
e 549 350 28.0
e 549 70 45.0
e 549 42 42.0
e 549 519 36.0
e 550 157 1.0
e 550 94 1.0
e 550 554 1.0
e 550 2 48.0
e 551 588 1.0
e 551 228 1.0
e 551 598 1.0
e 551 624 48.0
e 552 604 2.0
e 552 112 1.0
e 552 171 2.0
e 552 193 1.0
e 553 88 1.0
e 553 497 1.0
e 553 551 1.0
e 553 629 1.0
e 554 156 1.0
e 554 150 1.0
e 554 317 1.0
e 555 188 1.0
e 555 80 2.0
e 555 413 2.0
e 555 158 1.0
e 556 79 22.0
e 556 446 3.0
e 556 441 17.0
e 556 527 39.0
e 557 175 2.0
e 557 329 29.0
e 557 367 1.0
e 557 140 1.0
e 558 631 40.0
e 558 148 2.0
e 558 481 1.0
e 558 387 1.0
e 559 577 1.0
e 559 151 10.0
e 559 380 1.0
e 559 348 22.0
e 560 353 1.0
e 560 381 3.0
e 560 298 1.0
e 560 469 1.0
e 561 464 1.0
e 561 621 1.0
e 561 127 1.0
e 561 507 1.0
e 562 262 2.0
e 562 128 1.0
e 562 569 1.0
e 562 543 2.0
e 563 474 1.0
e 563 360 1.0
e 563 482 1.0
e 563 535 22.0
e 564 494 3.0
e 564 91 1.0
e 564 505 5.0
e 564 11 1.0
e 565 135 48.0
e 565 437 13.0
e 565 30 23.0
e 565 285 42.0
e 565 536 36.0
e 565 597 37.0
e 565 545 8.0
e 566 201 1.0
e 566 630 1.0
e 566 470 1.0
e 566 332 1.0
e 567 217 1.0
e 567 11 2.0
e 567 509 1.0
e 567 293 1.0
e 568 570 2.0
e 568 212 1.0
e 568 519 2.0
e 568 354 1.0
e 569 167 1.0
e 569 365 33.0
e 569 454 2.0
e 569 244 2.0
e 570 323 1.0
e 570 187 1.0
e 570 207 14.0
e 570 106 1.0
e 571 56 1.0
e 571 447 1.0
e 571 393 1.0
e 571 551 2.0
e 572 515 1.0
e 572 465 1.0
e 572 528 1.0
e 572 142 47.0
e 573 331 8.0
e 573 232 31.0
e 573 0 37.0
e 573 146 41.0
e 574 181 1.0
e 574 148 3.0
e 574 583 1.0
e 574 375 2.0
e 575 347 2.0
e 575 175 1.0
e 575 316 1.0
e 575 457 1.0
e 576 563 2.0
e 576 149 2.0
e 576 512 2.0
e 576 141 1.0
e 577 395 4.0
e 577 72 45.0
e 577 102 1.0
e 577 168 1.0
e 578 295 1.0
e 578 513 1.0
e 578 132 2.0
e 578 458 2.0
e 579 489 1.0
e 579 466 2.0
e 579 479 1.0
e 579 558 1.0
e 580 167 1.0
e 580 267 2.0
e 580 570 1.0
e 580 247 49.0
e 581 252 1.0
e 581 383 42.0
e 581 94 1.0
e 581 133 10.0
e 582 241 36.0
e 582 327 24.0
e 582 543 2.0
e 582 542 1.0
e 583 298 1.0
e 583 102 2.0
e 583 534 2.0
e 583 549 49.0
e 584 95 1.0
e 584 213 2.0
e 584 106 1.0
e 584 269 2.0
e 585 591 1.0
e 585 203 1.0
e 585 194 1.0
e 585 588 2.0
e 586 226 3.0
e 586 151 8.0
e 586 403 1.0
e 586 385 1.0
e 587 391 1.0
e 587 176 1.0
e 587 196 1.0
e 587 281 1.0
e 588 301 2.0
e 588 592 2.0
e 588 313 2.0
e 588 242 1.0
e 589 476 1.0
e 589 283 2.0
e 589 484 1.0
e 589 445 1.0
e 590 236 35.0
e 590 341 45.0
e 590 254 11.0
e 590 574 1.0
e 590 565 14.0
e 591 451 1.0
e 591 133 26.0
e 591 223 1.0
e 591 298 1.0
e 592 292 1.0
e 592 411 1.0
e 592 154 2.0
e 592 204 1.0
e 593 222 1.0
e 593 302 1.0
e 593 115 1.0
e 593 422 2.0
e 594 600 1.0
e 594 587 1.0
e 594 365 2.0
e 594 524 1.0
e 595 333 2.0
e 595 273 1.0
e 595 83 1.0
e 596 69 1.0
e 596 411 1.0
e 596 583 2.0
e 596 315 1.0
e 597 352 40.0
e 597 221 4.0
e 597 150 32.0
e 597 255 6.0
e 597 155 37.0
e 597 634 11.0
e 598 285 1.0
e 598 193 1.0
e 598 452 1.0
e 598 287 1.0
e 599 477 1.0
e 599 482 1.0
e 599 183 25.0
e 599 625 1.0
e 600 571 1.0
e 600 340 3.0
e 600 282 1.0
e 600 338 1.0
e 601 276 1.0
e 601 224 2.0
e 601 28 1.0
e 602 102 1.0
e 602 91 2.0
e 602 422 2.0
e 602 540 22.0
e 603 292 1.0
e 603 449 3.0
e 603 307 2.0
e 603 62 1.0
e 604 103 1.0
e 604 534 1.0
e 604 16 1.0
e 604 256 2.0
e 605 629 1.0
e 605 539 1.0
e 605 208 19.0
e 605 167 1.0
e 606 31 1.0
e 606 577 1.0
e 606 450 1.0
e 606 449 1.0
e 607 264 1.0
e 607 455 1.0
e 607 508 1.0
e 607 442 1.0
e 608 158 1.0
e 608 187 1.0
e 608 627 1.0
e 608 341 1.0
e 609 304 1.0
e 609 277 1.0
e 609 45 1.0
e 609 393 1.0
e 610 52 1.0
e 610 522 1.0
e 610 636 2.0
e 610 540 24.0
e 611 479 1.0
e 611 431 2.0
e 611 266 2.0
e 611 550 1.0
e 612 420 1.0
e 612 216 1.0
e 612 634 17.0
e 612 59 6.0
e 613 68 3.0
e 613 593 2.0
e 613 261 3.0
e 613 184 2.0
e 614 150 1.0
e 614 66 1.0
e 614 192 36.0
e 614 48 1.0
e 615 453 38.0
e 615 260 42.0
e 615 257 1.0
e 615 163 1.0
e 616 560 1.0
e 616 637 1.0
e 616 534 1.0
e 616 153 2.0
e 617 222 1.0
e 617 427 1.0
e 617 274 5.0
e 617 604 2.0
e 618 406 1.0
e 618 512 1.0
e 618 77 1.0
e 618 86 1.0
e 619 343 1.0
e 619 55 2.0
e 619 636 1.0
e 619 80 1.0
e 620 469 2.0
e 620 615 1.0
e 620 354 1.0
e 620 446 2.0
e 621 99 1.0
e 621 549 43.0
e 621 539 2.0
e 621 477 1.0
e 622 391 1.0
e 622 492 1.0
e 622 508 3.0
e 622 3 1.0
e 623 567 3.0
e 623 113 2.0
e 623 579 1.0
e 623 197 40.0
e 624 580 25.0
e 624 526 8.0
e 624 254 10.0
e 624 349 5.0
e 625 102 39.0
e 625 148 39.0
e 625 545 40.0
e 625 421 11.0
e 626 147 2.0
e 626 25 1.0
e 626 583 2.0
e 626 265 1.0
e 627 600 3.0
e 627 399 2.0
e 627 543 2.0
e 627 227 1.0
e 628 572 2.0
e 628 501 1.0
e 628 74 1.0
e 628 284 1.0
e 629 173 1.0
e 629 325 1.0
e 629 436 1.0
e 629 141 1.0
e 630 523 2.0
e 630 412 1.0
e 630 373 1.0
e 630 625 1.0
e 631 200 37.0
e 631 33 21.0
e 631 629 42.0
e 631 43 10.0
e 632 402 1.0
e 632 522 2.0
e 632 407 1.0
e 632 586 1.0
e 633 82 1.0
e 633 81 1.0
e 633 354 1.0
e 633 223 1.0
e 634 478 44.0
e 634 506 2.0
e 634 488 24.0
e 634 141 21.0
e 634 2 20.0
e 635 83 1.0
e 635 390 1.0
e 635 638 1.0
e 635 436 1.0
e 636 484 1.0
e 636 393 1.0
e 636 239 1.0
e 636 219 1.0
e 637 613 1.0
e 637 183 8.0
e 637 8 1.0
e 637 212 1.0
e 638 536 15.0
e 638 619 1.0
e 638 31 1.0
e 638 315 2.0
e 639 542 1.0
e 639 120 1.0
e 639 145 1.0
e 639 218 1.0
